Assets/LKHProbs~/skull.71.tsp
NAME : GeneratedProblem
COMMENT : SVGCrosshatch
TYPE : TSP
DIMENSION : 23
EDGE_WEIGHT_TYPE : EUC_2D
NODE_COORD_SECTION
1 3000 10600
2 3000 10700
3 3100 10600
4 3100 10700
5 3200 10600
6 3200 10700
7 3200 10800
8 3200 10900
9 3300 10600
10 3300 10700
11 3300 10800
12 3300 10900
13 3400 10800
14 3400 10900
15 3400 11000
16 3400 11100
17 3500 10800
18 3500 10900
19 3500 11000
20 3500 11100
21 3600 11000
22 3600 11100
23 3700 11100
EOF
