Assets/LKHProbs~/skull.71.out.txt
NAME : GeneratedProblem.2341.tour
COMMENT : Length = 2341
COMMENT : Found by LKH [Keld Helsgaun] Sun Nov 25 13:18:02 2018
TYPE : TOUR
DIMENSION : 23
TOUR_SECTION
1
2
4
6
7
8
12
14
15
16
20
22
23
21
19
18
17
13
11
10
9
5
3
-1
EOF
